tsp_instances/TSP20/instance119.tsp
NODE_COORD_SECTION
0 157 76
1 141 161
2 119 122
3 113 64
4 11 150
5 45 68
6 148 30
7 96 137
8 33 26
9 83 66
10 149 196
11 93 8
12 162 159
13 94 2
14 37 160
15 66 199
16 77 187
17 41 78
18 143 29
19 15 26
