tsp_instances/TSP20/instance119.opt.tour
TOUR_SECTION
1
4
10
8
3
2
13
11
17
16
15
5
18
6
20
9
12
14
19
7
-1